84
24
0
83
26
34
20
22
88
20
18
21
15
103
66
25
43
21
92
32
105
52
0
38
63
37
0
41
0
0
33
39
20
38
14
0
33
39
83
23
58
30
31
13
22
31
0
64
14
0
25
35
57
95
19
0
24
83
54
51
70
118
106
23
38
86
55
116
59
208
0
54
112
14
36
22
0
20
17
41
0
48
49
51
96
0
47
11
27
41
16
29
55
23
86
22
0
28
12
28
